441 449 448 447 446 445 444 443 442 439 440 453 452 499 500 501 497 496 465 464 463 462 461 460 459 458 457 456 455 454 438 437 436 435 434 433 432 430 431 429 428 427 426 420 421 422 423 424 425 382 386 387 388 389 390 391 392 381 380 379 378 377 315 314 316 374 375 376 393 394 395 396 371 372 373 322 323 324 325 326 327 328 329 366 342 365 367 368 369 370 398 397 399 400 401 402 403 404 406 407 408 405 409 385 383 384 410 418 419 417 411 412 356 357 355 354 353 352 413 414 416 415 351 350 347 348 349 358 359 360 361 362 363 364 346 345 344 343 341 340 330 331 332 333 339 338 337 336 335 334 283 284 285 286 287 280 281 282 279 278 277 276 288 289 290 275 274 273 292 291 293 294 295 296 270 268 269 272 271 267 266 265 264 263 262 261 260 259 258 299 298 297 321 320 319 317 318 305 306 304 303 307 506 507 508 302 301 300 257 256 255 253 254 252 251 250 249 248 241 242 243 244 245 247 246 238 239 240 237 236 235 234 233 232 224 219 218 220 221 222 223 217 216 215 214 213 212 211 210 209 194 195 196 197 198 205 206 207 208 203 204 202 199 200 201 165 164 166 167 163 168 162 161 160 154 155 159 156 153 157 158 145 146 144 143 142 147 148 152 149 150 151 141 140 139 138 137 136 135 134 133 132 131 130 129 128 127 126 125 124 117 116 115 114 113 112 111 110 172 175 170 171 169 180 181 179 182 178 177 176 174 173 108 109 107 542 541 543 544 545 546 547 103 104 105 106 118 119 120 121 122 123 71 70 69 68 67 66 65 72 73 74 75 64 76 77 88 89 90 87 86 85 82 83 57 81 80 79 78 62 63 61 60 59 58 56 55 53 54 52 51 84 50 49 48 47 46 45 44 43 42 39 40 41 557 556 552 553 554 555 91 92 93 94 95 96 97 98 99 100 102 101 551 550 559 558 34 33 35 38 37 36 32 30 31 29 28 27 26 25 24 21 22 23 12 13 11 16 15 14 20 19 18 17 10 9 8 7 6 5 4 3 2 1 0 573 572 571 466 467 468 469 470 471 495 494 472 473 474 570 569 568 567 566 565 564 563 562 561 560 549 548 478 477 479 480 476 475 482 481 483 485 484 536 537 539 538 540 187 188 186 185 183 184 193 192 191 190 226 225 189 227 228 229 230 231 533 532 531 530 489 488 534 535 487 486 493 492 525 524 521 522 523 526 491 490 529 528 527 512 511 510 509 513 514 515 516 517 520 518 519 498 502 503 504 505 308 309 310 311 313 312 451 450